<?xml version="1.0" encoding="UTF-8"?><osil xmlns="os.optimizationservices.org"   xmlns:xsi="http://www.w3.org/2001/XMLSchema-instance" xsi:schemaLocation="os.optimizationservices.org http://www.optimizationservices.org/schemas/2.0/OSiL.xsd" ><instanceHeader><name>q_40_0_25_4</name></instanceHeader><instanceData><variables numberOfVariables="40"><var name="x1" ub="1"/><var name="x2" ub="1"/><var name="x3" ub="1"/><var name="x4" ub="1"/><var name="x5" ub="1"/><var name="x6" ub="1"/><var name="x7" ub="1"/><var name="x8" ub="1"/><var name="x9" ub="1"/><var name="x10" ub="1"/><var name="x11" ub="1"/><var name="x12" ub="1"/><var name="x13" ub="1"/><var name="x14" ub="1"/><var name="x15" ub="1"/><var name="x16" ub="1"/><var name="x17" ub="1"/><var name="x18" ub="1"/><var name="x19" ub="1"/><var name="x20" ub="1"/><var name="x21" ub="1"/><var name="x22" ub="1"/><var name="x23" ub="1"/><var name="x24" ub="1"/><var name="x25" ub="1"/><var name="x26" ub="1"/><var name="x27" ub="1"/><var name="x28" ub="1"/><var name="x29" ub="1"/><var name="x30" ub="1"/><var name="x31" ub="1"/><var name="x32" ub="1"/><var name="x33" ub="1"/><var name="x34" ub="1"/><var name="x35" ub="1"/><var name="x36" ub="1"/><var name="x37" ub="1"/><var name="x38" ub="1"/><var name="x39" ub="1"/><var name="x40" ub="1"/></variables><objectives numberOfObjectives="1"><obj maxOrMin="min" name="defObj_x41" numberOfObjCoef="40"><coef idx="0">.208</coef><coef idx="1">.2939</coef><coef idx="2">.4719</coef><coef idx="3">.1079</coef><coef idx="4">-.1952</coef><coef idx="5">.9831</coef><coef idx="6">-.3912</coef><coef idx="7">-1.64e-2</coef><coef idx="8">-.7641</coef><coef idx="9">.825</coef><coef idx="10">.7573</coef><coef idx="11">-7.31e-2</coef><coef idx="12">-.7839</coef><coef idx="13">.2375</coef><coef idx="14">.342</coef><coef idx="15">-.2362</coef><coef idx="16">.7813</coef><coef idx="17">.6021</coef><coef idx="18">.3864</coef><coef idx="19">.7828</coef><coef idx="20">-.2355</coef><coef idx="21">.1796</coef><coef idx="22">-.7816</coef><coef idx="23">.6992</coef><coef idx="24">-.5391</coef><coef idx="25">.1898</coef><coef idx="26">-.3419</coef><coef idx="27">-.6057</coef><coef idx="28">.4886</coef><coef idx="29">-6.93e-2</coef><coef idx="30">.6415</coef><coef idx="31">-.1695</coef><coef idx="32">-.662</coef><coef idx="33">-.6558</coef><coef idx="34">-.2137</coef><coef idx="35">8.07e-2</coef><coef idx="36">.2775</coef><coef idx="37">-.639</coef><coef idx="38">.1566</coef><coef idx="39">.4792</coef></obj></objectives><quadraticCoefficients  numberOfQuadraticTerms="205" ><qTerm  idx="-1"  idxOne="0"  idxTwo="8"  coef="-1.3751"/><qTerm  idx="-1"  idxOne="0"  idxTwo="11"  coef="-1.0352"/><qTerm  idx="-1"  idxOne="0"  idxTwo="13"  coef="1.3471"/><qTerm  idx="-1"  idxOne="0"  idxTwo="15"  coef="-.2972"/><qTerm  idx="-1"  idxOne="0"  idxTwo="19"  coef="5.88e-2"/><qTerm  idx="-1"  idxOne="0"  idxTwo="35"  coef="-1.2467"/><qTerm  idx="-1"  idxOne="1"  idxTwo="1"  coef="-.5611"/><qTerm  idx="-1"  idxOne="1"  idxTwo="5"  coef="-.2406"/><qTerm  idx="-1"  idxOne="1"  idxTwo="7"  coef="-1.4694"/><qTerm  idx="-1"  idxOne="1"  idxTwo="8"  coef="1.2781"/><qTerm  idx="-1"  idxOne="1"  idxTwo="10"  coef="1.6825"/><qTerm  idx="-1"  idxOne="1"  idxTwo="15"  coef="1.9627"/><qTerm  idx="-1"  idxOne="1"  idxTwo="16"  coef="-.3649"/><qTerm  idx="-1"  idxOne="1"  idxTwo="17"  coef="-1.5618"/><qTerm  idx="-1"  idxOne="1"  idxTwo="21"  coef="1.9986"/><qTerm  idx="-1"  idxOne="1"  idxTwo="29"  coef="-.9627"/><qTerm  idx="-1"  idxOne="1"  idxTwo="31"  coef="1.885"/><qTerm  idx="-1"  idxOne="1"  idxTwo="32"  coef="-.6475"/><qTerm  idx="-1"  idxOne="1"  idxTwo="34"  coef="1.8783"/><qTerm  idx="-1"  idxOne="2"  idxTwo="6"  coef="-.6486"/><qTerm  idx="-1"  idxOne="2"  idxTwo="11"  coef="-1.3589"/><qTerm  idx="-1"  idxOne="2"  idxTwo="12"  coef="-2.8e-2"/><qTerm  idx="-1"  idxOne="2"  idxTwo="13"  coef="-.825"/><qTerm  idx="-1"  idxOne="2"  idxTwo="17"  coef="1.0377"/><qTerm  idx="-1"  idxOne="2"  idxTwo="19"  coef="-1.507"/><qTerm  idx="-1"  idxOne="2"  idxTwo="27"  coef="1.5927"/><qTerm  idx="-1"  idxOne="2"  idxTwo="30"  coef="-.7515"/><qTerm  idx="-1"  idxOne="2"  idxTwo="32"  coef="1.5537"/><qTerm  idx="-1"  idxOne="2"  idxTwo="34"  coef="1.1194"/><qTerm  idx="-1"  idxOne="2"  idxTwo="36"  coef=".3429"/><qTerm  idx="-1"  idxOne="3"  idxTwo="6"  coef="5.56e-2"/><qTerm  idx="-1"  idxOne="3"  idxTwo="7"  coef="1.7614"/><qTerm  idx="-1"  idxOne="3"  idxTwo="8"  coef="-1.3885"/><qTerm  idx="-1"  idxOne="3"  idxTwo="11"  coef=".5906"/><qTerm  idx="-1"  idxOne="3"  idxTwo="17"  coef="-1.8216"/><qTerm  idx="-1"  idxOne="3"  idxTwo="20"  coef=".4301"/><qTerm  idx="-1"  idxOne="3"  idxTwo="24"  coef="-.8164"/><qTerm  idx="-1"  idxOne="3"  idxTwo="25"  coef="1.9176"/><qTerm  idx="-1"  idxOne="3"  idxTwo="26"  coef="-1.8571"/><qTerm  idx="-1"  idxOne="3"  idxTwo="30"  coef="-.6914"/><qTerm  idx="-1"  idxOne="3"  idxTwo="32"  coef=".2133"/><qTerm  idx="-1"  idxOne="3"  idxTwo="34"  coef="-.3228"/><qTerm  idx="-1"  idxOne="3"  idxTwo="36"  coef="-1.5402"/><qTerm  idx="-1"  idxOne="4"  idxTwo="11"  coef="-.1731"/><qTerm  idx="-1"  idxOne="4"  idxTwo="14"  coef="-1.9605"/><qTerm  idx="-1"  idxOne="4"  idxTwo="16"  coef=".7028"/><qTerm  idx="-1"  idxOne="4"  idxTwo="18"  coef=".6215"/><qTerm  idx="-1"  idxOne="4"  idxTwo="21"  coef="1.9682"/><qTerm  idx="-1"  idxOne="4"  idxTwo="23"  coef="-1.7274"/><qTerm  idx="-1"  idxOne="4"  idxTwo="26"  coef="1.7284"/><qTerm  idx="-1"  idxOne="4"  idxTwo="29"  coef=".9282"/><qTerm  idx="-1"  idxOne="4"  idxTwo="31"  coef=".849"/><qTerm  idx="-1"  idxOne="4"  idxTwo="32"  coef="-.7914"/><qTerm  idx="-1"  idxOne="4"  idxTwo="35"  coef=".866"/><qTerm  idx="-1"  idxOne="5"  idxTwo="14"  coef="-1.213"/><qTerm  idx="-1"  idxOne="5"  idxTwo="15"  coef="1.5486"/><qTerm  idx="-1"  idxOne="5"  idxTwo="22"  coef="1.7882"/><qTerm  idx="-1"  idxOne="5"  idxTwo="24"  coef="-.1098"/><qTerm  idx="-1"  idxOne="5"  idxTwo="26"  coef="-.2279"/><qTerm  idx="-1"  idxOne="5"  idxTwo="32"  coef="1.884"/><qTerm  idx="-1"  idxOne="5"  idxTwo="33"  coef=".7149"/><qTerm  idx="-1"  idxOne="6"  idxTwo="8"  coef="1.3354"/><qTerm  idx="-1"  idxOne="6"  idxTwo="10"  coef="-1.1124"/><qTerm  idx="-1"  idxOne="6"  idxTwo="12"  coef="-1.94e-2"/><qTerm  idx="-1"  idxOne="6"  idxTwo="13"  coef="-.3829"/><qTerm  idx="-1"  idxOne="6"  idxTwo="29"  coef="-1.0809"/><qTerm  idx="-1"  idxOne="6"  idxTwo="31"  coef="-.717"/><qTerm  idx="-1"  idxOne="6"  idxTwo="34"  coef=".4055"/><qTerm  idx="-1"  idxOne="6"  idxTwo="37"  coef=".7912"/><qTerm  idx="-1"  idxOne="6"  idxTwo="38"  coef="-.5006"/><qTerm  idx="-1"  idxOne="7"  idxTwo="8"  coef="1.2855"/><qTerm  idx="-1"  idxOne="7"  idxTwo="9"  coef="-1.4094"/><qTerm  idx="-1"  idxOne="7"  idxTwo="14"  coef="1.9919"/><qTerm  idx="-1"  idxOne="7"  idxTwo="15"  coef=".5522"/><qTerm  idx="-1"  idxOne="7"  idxTwo="19"  coef=".8699"/><qTerm  idx="-1"  idxOne="7"  idxTwo="21"  coef=".6244"/><qTerm  idx="-1"  idxOne="7"  idxTwo="25"  coef="-.6379"/><qTerm  idx="-1"  idxOne="7"  idxTwo="29"  coef="-1.5253"/><qTerm  idx="-1"  idxOne="8"  idxTwo="20"  coef=".6826"/><qTerm  idx="-1"  idxOne="8"  idxTwo="22"  coef="-1.5627"/><qTerm  idx="-1"  idxOne="8"  idxTwo="25"  coef="8.61e-2"/><qTerm  idx="-1"  idxOne="8"  idxTwo="27"  coef=".3532"/><qTerm  idx="-1"  idxOne="8"  idxTwo="31"  coef="1.062"/><qTerm  idx="-1"  idxOne="8"  idxTwo="33"  coef="-9.11e-2"/><qTerm  idx="-1"  idxOne="9"  idxTwo="10"  coef="-1.4281"/><qTerm  idx="-1"  idxOne="9"  idxTwo="12"  coef=".2967"/><qTerm  idx="-1"  idxOne="9"  idxTwo="14"  coef=".1897"/><qTerm  idx="-1"  idxOne="9"  idxTwo="16"  coef="1.6743"/><qTerm  idx="-1"  idxOne="9"  idxTwo="17"  coef="-1.3356"/><qTerm  idx="-1"  idxOne="9"  idxTwo="19"  coef="-1.6202"/><qTerm  idx="-1"  idxOne="9"  idxTwo="20"  coef="1.0856"/><qTerm  idx="-1"  idxOne="9"  idxTwo="31"  coef="3.1e-3"/><qTerm  idx="-1"  idxOne="9"  idxTwo="33"  coef=".2441"/><qTerm  idx="-1"  idxOne="10"  idxTwo="13"  coef="1.5197"/><qTerm  idx="-1"  idxOne="10"  idxTwo="15"  coef="1.0896"/><qTerm  idx="-1"  idxOne="10"  idxTwo="16"  coef=".2352"/><qTerm  idx="-1"  idxOne="10"  idxTwo="21"  coef="1.538"/><qTerm  idx="-1"  idxOne="10"  idxTwo="28"  coef="-.7751"/><qTerm  idx="-1"  idxOne="11"  idxTwo="19"  coef="-8.68e-2"/><qTerm  idx="-1"  idxOne="11"  idxTwo="20"  coef="-.7476"/><qTerm  idx="-1"  idxOne="11"  idxTwo="24"  coef="5.e-4"/><qTerm  idx="-1"  idxOne="11"  idxTwo="25"  coef="1.0648"/><qTerm  idx="-1"  idxOne="11"  idxTwo="27"  coef=".2375"/><qTerm  idx="-1"  idxOne="11"  idxTwo="28"  coef=".1456"/><qTerm  idx="-1"  idxOne="11"  idxTwo="39"  coef="1.3622"/><qTerm  idx="-1"  idxOne="12"  idxTwo="16"  coef=".9141"/><qTerm  idx="-1"  idxOne="12"  idxTwo="17"  coef="-1.96"/><qTerm  idx="-1"  idxOne="12"  idxTwo="24"  coef="1.1193"/><qTerm  idx="-1"  idxOne="12"  idxTwo="28"  coef="-1.2294"/><qTerm  idx="-1"  idxOne="12"  idxTwo="32"  coef="1.1509"/><qTerm  idx="-1"  idxOne="12"  idxTwo="37"  coef=".718"/><qTerm  idx="-1"  idxOne="12"  idxTwo="38"  coef="-1.5521"/><qTerm  idx="-1"  idxOne="13"  idxTwo="19"  coef="-.6705"/><qTerm  idx="-1"  idxOne="13"  idxTwo="24"  coef="1.0084"/><qTerm  idx="-1"  idxOne="13"  idxTwo="25"  coef="-1.7118"/><qTerm  idx="-1"  idxOne="13"  idxTwo="35"  coef="1.8684"/><qTerm  idx="-1"  idxOne="14"  idxTwo="14"  coef=".9589"/><qTerm  idx="-1"  idxOne="14"  idxTwo="18"  coef=".6602"/><qTerm  idx="-1"  idxOne="14"  idxTwo="19"  coef="-1.2027"/><qTerm  idx="-1"  idxOne="14"  idxTwo="20"  coef="1.4986"/><qTerm  idx="-1"  idxOne="14"  idxTwo="25"  coef="-1.5578"/><qTerm  idx="-1"  idxOne="14"  idxTwo="35"  coef="-.743"/><qTerm  idx="-1"  idxOne="14"  idxTwo="36"  coef="-1.1794"/><qTerm  idx="-1"  idxOne="14"  idxTwo="39"  coef=".2625"/><qTerm  idx="-1"  idxOne="15"  idxTwo="16"  coef="1.8058"/><qTerm  idx="-1"  idxOne="15"  idxTwo="18"  coef="-1.1537"/><qTerm  idx="-1"  idxOne="15"  idxTwo="21"  coef="1.1558"/><qTerm  idx="-1"  idxOne="15"  idxTwo="25"  coef="-1.6231"/><qTerm  idx="-1"  idxOne="15"  idxTwo="30"  coef="-.7114"/><qTerm  idx="-1"  idxOne="15"  idxTwo="31"  coef="1.6896"/><qTerm  idx="-1"  idxOne="15"  idxTwo="34"  coef=".9721"/><qTerm  idx="-1"  idxOne="15"  idxTwo="37"  coef="-.6476"/><qTerm  idx="-1"  idxOne="15"  idxTwo="38"  coef=".1015"/><qTerm  idx="-1"  idxOne="16"  idxTwo="17"  coef=".6517"/><qTerm  idx="-1"  idxOne="16"  idxTwo="22"  coef="-1.2257"/><qTerm  idx="-1"  idxOne="16"  idxTwo="27"  coef=".3607"/><qTerm  idx="-1"  idxOne="16"  idxTwo="32"  coef=".3119"/><qTerm  idx="-1"  idxOne="16"  idxTwo="33"  coef="-1.7859"/><qTerm  idx="-1"  idxOne="16"  idxTwo="35"  coef="-1.5968"/><qTerm  idx="-1"  idxOne="16"  idxTwo="36"  coef="-1.3943"/><qTerm  idx="-1"  idxOne="16"  idxTwo="37"  coef="1.9881"/><qTerm  idx="-1"  idxOne="16"  idxTwo="39"  coef="-1.3494"/><qTerm  idx="-1"  idxOne="17"  idxTwo="19"  coef="1.2686"/><qTerm  idx="-1"  idxOne="17"  idxTwo="26"  coef="-1.2069"/><qTerm  idx="-1"  idxOne="17"  idxTwo="29"  coef="-.3931"/><qTerm  idx="-1"  idxOne="17"  idxTwo="34"  coef=".7869"/><qTerm  idx="-1"  idxOne="18"  idxTwo="18"  coef="1.7584"/><qTerm  idx="-1"  idxOne="18"  idxTwo="25"  coef=".4557"/><qTerm  idx="-1"  idxOne="18"  idxTwo="26"  coef="-.7585"/><qTerm  idx="-1"  idxOne="18"  idxTwo="28"  coef="1.5793"/><qTerm  idx="-1"  idxOne="18"  idxTwo="29"  coef="-1.869"/><qTerm  idx="-1"  idxOne="19"  idxTwo="20"  coef="-1.9699"/><qTerm  idx="-1"  idxOne="19"  idxTwo="22"  coef="1.2126"/><qTerm  idx="-1"  idxOne="19"  idxTwo="27"  coef="-1.9188"/><qTerm  idx="-1"  idxOne="19"  idxTwo="30"  coef="-1.5949"/><qTerm  idx="-1"  idxOne="19"  idxTwo="31"  coef=".4859"/><qTerm  idx="-1"  idxOne="19"  idxTwo="33"  coef="1.603"/><qTerm  idx="-1"  idxOne="19"  idxTwo="34"  coef=".907"/><qTerm  idx="-1"  idxOne="20"  idxTwo="26"  coef="1.7118"/><qTerm  idx="-1"  idxOne="20"  idxTwo="31"  coef="1.7025"/><qTerm  idx="-1"  idxOne="20"  idxTwo="39"  coef="-1.8765"/><qTerm  idx="-1"  idxOne="21"  idxTwo="23"  coef="-.6635"/><qTerm  idx="-1"  idxOne="21"  idxTwo="25"  coef="-.8292"/><qTerm  idx="-1"  idxOne="21"  idxTwo="26"  coef="-1.3868"/><qTerm  idx="-1"  idxOne="21"  idxTwo="30"  coef=".1004"/><qTerm  idx="-1"  idxOne="21"  idxTwo="34"  coef=".3039"/><qTerm  idx="-1"  idxOne="22"  idxTwo="24"  coef="1.4613"/><qTerm  idx="-1"  idxOne="22"  idxTwo="26"  coef=".8148"/><qTerm  idx="-1"  idxOne="22"  idxTwo="27"  coef=".61"/><qTerm  idx="-1"  idxOne="22"  idxTwo="35"  coef="3.82e-2"/><qTerm  idx="-1"  idxOne="22"  idxTwo="37"  coef="-1.4478"/><qTerm  idx="-1"  idxOne="23"  idxTwo="24"  coef=".7252"/><qTerm  idx="-1"  idxOne="23"  idxTwo="27"  coef=".4229"/><qTerm  idx="-1"  idxOne="23"  idxTwo="29"  coef="-1.0589"/><qTerm  idx="-1"  idxOne="23"  idxTwo="30"  coef=".4828"/><qTerm  idx="-1"  idxOne="23"  idxTwo="35"  coef=".8357"/><qTerm  idx="-1"  idxOne="23"  idxTwo="39"  coef="-1.8847"/><qTerm  idx="-1"  idxOne="24"  idxTwo="25"  coef=".5295"/><qTerm  idx="-1"  idxOne="24"  idxTwo="29"  coef="-.1587"/><qTerm  idx="-1"  idxOne="24"  idxTwo="34"  coef="-1.7762"/><qTerm  idx="-1"  idxOne="25"  idxTwo="26"  coef=".6547"/><qTerm  idx="-1"  idxOne="25"  idxTwo="27"  coef="-.466"/><qTerm  idx="-1"  idxOne="25"  idxTwo="30"  coef="-.8009"/><qTerm  idx="-1"  idxOne="25"  idxTwo="37"  coef="-.4633"/><qTerm  idx="-1"  idxOne="26"  idxTwo="29"  coef="1.3636"/><qTerm  idx="-1"  idxOne="26"  idxTwo="32"  coef="-1.0064"/><qTerm  idx="-1"  idxOne="26"  idxTwo="37"  coef="-.5238"/><qTerm  idx="-1"  idxOne="27"  idxTwo="28"  coef=".6081"/><qTerm  idx="-1"  idxOne="27"  idxTwo="32"  coef="-1.0434"/><qTerm  idx="-1"  idxOne="27"  idxTwo="33"  coef="-1.4976"/><qTerm  idx="-1"  idxOne="27"  idxTwo="34"  coef="-.2404"/><qTerm  idx="-1"  idxOne="27"  idxTwo="36"  coef="1.5728"/><qTerm  idx="-1"  idxOne="27"  idxTwo="38"  coef=".2909"/><qTerm  idx="-1"  idxOne="28"  idxTwo="34"  coef=".7403"/><qTerm  idx="-1"  idxOne="28"  idxTwo="38"  coef="1.8476"/><qTerm  idx="-1"  idxOne="29"  idxTwo="34"  coef="8.6e-3"/><qTerm  idx="-1"  idxOne="29"  idxTwo="38"  coef=".9008"/><qTerm  idx="-1"  idxOne="30"  idxTwo="31"  coef=".6997"/><qTerm  idx="-1"  idxOne="31"  idxTwo="36"  coef="-5.76e-2"/><qTerm  idx="-1"  idxOne="31"  idxTwo="39"  coef="-.1287"/><qTerm  idx="-1"  idxOne="32"  idxTwo="37"  coef=".8768"/><qTerm  idx="-1"  idxOne="34"  idxTwo="35"  coef="-.6494"/><qTerm  idx="-1"  idxOne="35"  idxTwo="39"  coef=".1322"/><qTerm  idx="-1"  idxOne="36"  idxTwo="37"  coef="-1.1813"/><qTerm  idx="-1"  idxOne="38"  idxTwo="39"  coef="-1.4689"/></quadraticCoefficients></instanceData></osil>
